data/lp_files/pEFS/54_0.lp
\ Model foo
\ LP format - for model browsing. Use MPS format to capture full model detail.
Minimize
  z
Subject To
 allocateEach[1]: x[1,1] + x[2,1] + x[3,1] = 1
 allocateEach[2]: x[1,2] + x[2,2] + x[3,2] = 1
 allocateEach[3]: x[1,3] + x[2,3] + x[3,3] = 1
 allocateEach[4]: x[1,4] + x[2,4] + x[3,4] = 1
 allocateEach[5]: x[1,5] + x[2,5] + x[3,5] = 1
 allocateEach[6]: x[1,6] + x[2,6] + x[3,6] = 1
 allocateEach[7]: x[1,7] + x[2,7] + x[3,7] = 1
 allocateEach[8]: x[1,8] + x[2,8] + x[3,8] = 1
 allocateEach[9]: x[1,9] + x[2,9] + x[3,9] = 1
 allocateEach[10]: x[1,10] + x[2,10] + x[3,10] = 1
 allocateEach[11]: x[1,11] + x[2,11] + x[3,11] = 1
 allocateEach[12]: x[1,12] + x[2,12] + x[3,12] = 1
 allocateEach[13]: x[1,13] + x[2,13] + x[3,13] = 1
 allocateEach[14]: x[1,14] + x[2,14] + x[3,14] = 1
 allocateAllCash: cashProportion[1] + cashProportion[2] + cashProportion[3]
   = 1
 findWorstP[1,2]: z + 0.00780530448492796 cashProportion[1]
   - 0.00780530448492796 cashProportion[2] + 0.00385582041555441 x[1,1]
   + 0.0332662077147629 x[1,2] + 0.1464275121372484 x[1,3]
   + 0.1532961800839851 x[1,4] + 0.0778813281506111 x[1,5]
   + 0.0443341294743908 x[1,6] + 0.0461917919418036 x[1,7]
   + 0.0118328415991508 x[1,8] + 0.0636600633790724 x[1,9]
   + 0.1177508234596231 x[1,10] + 0.0504690987995442 x[1,11]
   + 0.1505799341232301 x[1,12] + 0.0341404018170749 x[1,13]
   + 0.05850856241902 x[1,14] - 0.00385582041555441 x[2,1]
   - 0.0332662077147629 x[2,2] - 0.1464275121372484 x[2,3]
   - 0.1532961800839851 x[2,4] - 0.0778813281506111 x[2,5]
   - 0.0443341294743908 x[2,6] - 0.0461917919418036 x[2,7]
   - 0.0118328415991508 x[2,8] - 0.0636600633790724 x[2,9]
   - 0.1177508234596231 x[2,10] - 0.0504690987995442 x[2,11]
   - 0.1505799341232301 x[2,12] - 0.0341404018170749 x[2,13]
   - 0.05850856241902 x[2,14] >= 0
 findWorstP[1,3]: z + 0.00780530448492796 cashProportion[1]
   - 0.00780530448492796 cashProportion[3] + 0.00385582041555441 x[1,1]
   + 0.0332662077147629 x[1,2] + 0.1464275121372484 x[1,3]
   + 0.1532961800839851 x[1,4] + 0.0778813281506111 x[1,5]
   + 0.0443341294743908 x[1,6] + 0.0461917919418036 x[1,7]
   + 0.0118328415991508 x[1,8] + 0.0636600633790724 x[1,9]
   + 0.1177508234596231 x[1,10] + 0.0504690987995442 x[1,11]
   + 0.1505799341232301 x[1,12] + 0.0341404018170749 x[1,13]
   + 0.05850856241902 x[1,14] - 0.00385582041555441 x[3,1]
   - 0.0332662077147629 x[3,2] - 0.1464275121372484 x[3,3]
   - 0.1532961800839851 x[3,4] - 0.0778813281506111 x[3,5]
   - 0.0443341294743908 x[3,6] - 0.0461917919418036 x[3,7]
   - 0.0118328415991508 x[3,8] - 0.0636600633790724 x[3,9]
   - 0.1177508234596231 x[3,10] - 0.0504690987995442 x[3,11]
   - 0.1505799341232301 x[3,12] - 0.0341404018170749 x[3,13]
   - 0.05850856241902 x[3,14] >= 0
 findWorstP[2,1]: z - 0.00661174510400275 cashProportion[1]
   + 0.00661174510400275 cashProportion[2] - 0.0324768919508615 x[1,1]
   - 0.0806897372492496 x[1,2] - 0.0521402218901657 x[1,3]
   - 0.0894833582375732 x[1,4] - 0.0212898192348889 x[1,5]
   - 0.0626396731153221 x[1,6] - 0.0260238287293548 x[1,7]
   - 0.1223701783848829 x[1,8] - 0.0905544609444217 x[1,9]
   - 0.0857543339989157 x[1,10] - 0.0585536146410484 x[1,11]
   - 0.1289422530182616 x[1,12] - 0.0322917630879494 x[1,13]
   - 0.1101781204131018 x[1,14] + 0.0324768919508615 x[2,1]
   + 0.0806897372492496 x[2,2] + 0.0521402218901657 x[2,3]
   + 0.0894833582375732 x[2,4] + 0.0212898192348889 x[2,5]
   + 0.0626396731153221 x[2,6] + 0.0260238287293548 x[2,7]
   + 0.1223701783848829 x[2,8] + 0.0905544609444217 x[2,9]
   + 0.0857543339989157 x[2,10] + 0.0585536146410484 x[2,11]
   + 0.1289422530182616 x[2,12] + 0.0322917630879494 x[2,13]
   + 0.1101781204131018 x[2,14] >= 0
 findWorstP[2,3]: z + 0.00661174510400275 cashProportion[2]
   - 0.00661174510400275 cashProportion[3] + 0.0324768919508615 x[2,1]
   + 0.0806897372492496 x[2,2] + 0.0521402218901657 x[2,3]
   + 0.0894833582375732 x[2,4] + 0.0212898192348889 x[2,5]
   + 0.0626396731153221 x[2,6] + 0.0260238287293548 x[2,7]
   + 0.1223701783848829 x[2,8] + 0.0905544609444217 x[2,9]
   + 0.0857543339989157 x[2,10] + 0.0585536146410484 x[2,11]
   + 0.1289422530182616 x[2,12] + 0.0322917630879494 x[2,13]
   + 0.1101781204131018 x[2,14] - 0.0324768919508615 x[3,1]
   - 0.0806897372492496 x[3,2] - 0.0521402218901657 x[3,3]
   - 0.0894833582375732 x[3,4] - 0.0212898192348889 x[3,5]
   - 0.0626396731153221 x[3,6] - 0.0260238287293548 x[3,7]
   - 0.1223701783848829 x[3,8] - 0.0905544609444217 x[3,9]
   - 0.0857543339989157 x[3,10] - 0.0585536146410484 x[3,11]
   - 0.1289422530182616 x[3,12] - 0.0322917630879494 x[3,13]
   - 0.1101781204131018 x[3,14] >= 0
 findWorstP[3,1]: z - 0.00819054483504243 cashProportion[1]
   + 0.00819054483504243 cashProportion[3] - 0.154637486485601 x[1,1]
   - 0.0162991842217344 x[1,2] - 0.0305507322347083 x[1,3]
   - 0.1352258952265505 x[1,4] - 0.0279789011565049 x[1,5]
   - 0.1353733250335812 x[1,6] - 0.0487173606788324 x[1,7]
   - 0.1032663892802149 x[1,8] - 0.0398224289879763 x[1,9]
   - 0.0415752055826754 x[1,10] - 0.0155947973659208 x[1,11]
   - 0.0940602168856273 x[1,12] - 0.1347180814467779 x[1,13]
   - 0.0139894505782525 x[1,14] + 0.154637486485601 x[3,1]
   + 0.0162991842217344 x[3,2] + 0.0305507322347083 x[3,3]
   + 0.1352258952265505 x[3,4] + 0.0279789011565049 x[3,5]
   + 0.1353733250335812 x[3,6] + 0.0487173606788324 x[3,7]
   + 0.1032663892802149 x[3,8] + 0.0398224289879763 x[3,9]
   + 0.0415752055826754 x[3,10] + 0.0155947973659208 x[3,11]
   + 0.0940602168856273 x[3,12] + 0.1347180814467779 x[3,13]
   + 0.0139894505782525 x[3,14] >= 0
 findWorstP[3,2]: z - 0.00819054483504243 cashProportion[2]
   + 0.00819054483504243 cashProportion[3] - 0.154637486485601 x[2,1]
   - 0.0162991842217344 x[2,2] - 0.0305507322347083 x[2,3]
   - 0.1352258952265505 x[2,4] - 0.0279789011565049 x[2,5]
   - 0.1353733250335812 x[2,6] - 0.0487173606788324 x[2,7]
   - 0.1032663892802149 x[2,8] - 0.0398224289879763 x[2,9]
   - 0.0415752055826754 x[2,10] - 0.0155947973659208 x[2,11]
   - 0.0940602168856273 x[2,12] - 0.1347180814467779 x[2,13]
   - 0.0139894505782525 x[2,14] + 0.154637486485601 x[3,1]
   + 0.0162991842217344 x[3,2] + 0.0305507322347083 x[3,3]
   + 0.1352258952265505 x[3,4] + 0.0279789011565049 x[3,5]
   + 0.1353733250335812 x[3,6] + 0.0487173606788324 x[3,7]
   + 0.1032663892802149 x[3,8] + 0.0398224289879763 x[3,9]
   + 0.0415752055826754 x[3,10] + 0.0155947973659208 x[3,11]
   + 0.0940602168856273 x[3,12] + 0.1347180814467779 x[3,13]
   + 0.0139894505782525 x[3,14] >= 0
Bounds
 z <= 1
 -infinity <= cashProportion[1] <= 1
 -infinity <= cashProportion[2] <= 1
 -infinity <= cashProportion[3] <= 1
Binaries
 x[1,1] x[1,2] x[1,3] x[1,4] x[1,5] x[1,6] x[1,7] x[1,8] x[1,9] x[1,10]
 x[1,11] x[1,12] x[1,13] x[1,14] x[2,1] x[2,2] x[2,3] x[2,4] x[2,5] x[2,6]
 x[2,7] x[2,8] x[2,9] x[2,10] x[2,11] x[2,12] x[2,13] x[2,14] x[3,1] x[3,2]
 x[3,3] x[3,4] x[3,5] x[3,6] x[3,7] x[3,8] x[3,9] x[3,10] x[3,11] x[3,12]
 x[3,13] x[3,14]
End
