data/mps_files/q3/54_0.mps
NAME foo
ROWS
 N  OBJ
 E  allocateEach[1]
 E  allocateEach[2]
 E  allocateEach[3]
 E  allocateEach[4]
 E  allocateEach[5]
 E  allocateEach[6]
 E  allocateEach[7]
 E  allocateEach[8]
 E  allocateEach[9]
 E  allocateEach[10]
 E  allocateEach[11]
 E  allocateEach[12]
 E  allocateEach[13]
 E  allocateEach[14]
 E  allocateAllCash
 G  findWorstP[1,2]
 G  findWorstP[1,3]
 G  findWorstP[2,1]
 G  findWorstP[2,3]
 G  findWorstP[3,1]
 G  findWorstP[3,2]
COLUMNS
    z         OBJ       1
    z         findWorstP[1,2]  1
    z         findWorstP[1,3]  1
    z         findWorstP[2,1]  1
    z         findWorstP[2,3]  1
    z         findWorstP[3,1]  1
    z         findWorstP[3,2]  1
    cashProportion[1]  allocateAllCash  1
    cashProportion[1]  findWorstP[1,2]  7.8053044849279571e-03
    cashProportion[1]  findWorstP[1,3]  7.8053044849279571e-03
    cashProportion[1]  findWorstP[2,1]  -6.6117451040027505e-03
    cashProportion[1]  findWorstP[3,1]  -8.1905448350424286e-03
    cashProportion[2]  allocateAllCash  1
    cashProportion[2]  findWorstP[1,2]  -7.8053044849279571e-03
    cashProportion[2]  findWorstP[2,1]  6.6117451040027505e-03
    cashProportion[2]  findWorstP[2,3]  6.6117451040027505e-03
    cashProportion[2]  findWorstP[3,2]  -8.1905448350424286e-03
    cashProportion[3]  allocateAllCash  1
    cashProportion[3]  findWorstP[1,3]  -7.8053044849279571e-03
    cashProportion[3]  findWorstP[2,3]  -6.6117451040027505e-03
    cashProportion[3]  findWorstP[3,1]  8.1905448350424286e-03
    cashProportion[3]  findWorstP[3,2]  8.1905448350424286e-03
    MARKER    'MARKER'                 'INTORG'
    x[1,1]    allocateEach[1]  1
    x[1,1]    findWorstP[1,2]  3.8558204155544106e-03
    x[1,1]    findWorstP[1,3]  3.8558204155544106e-03
    x[1,1]    findWorstP[2,1]  -3.2476891950861508e-02
    x[1,1]    findWorstP[3,1]  -1.5463748648560102e-01
    x[1,2]    allocateEach[2]  1
    x[1,2]    findWorstP[1,2]  3.3266207714762949e-02
    x[1,2]    findWorstP[1,3]  3.3266207714762949e-02
    x[1,2]    findWorstP[2,1]  -8.0689737249249563e-02
    x[1,2]    findWorstP[3,1]  -1.6299184221734431e-02
    x[1,3]    allocateEach[3]  1
    x[1,3]    findWorstP[1,2]  1.4642751213724844e-01
    x[1,3]    findWorstP[1,3]  1.4642751213724844e-01
    x[1,3]    findWorstP[2,1]  -5.2140221890165685e-02
    x[1,3]    findWorstP[3,1]  -3.0550732234708257e-02
    x[1,4]    allocateEach[4]  1
    x[1,4]    findWorstP[1,2]  1.5329618008398507e-01
    x[1,4]    findWorstP[1,3]  1.5329618008398507e-01
    x[1,4]    findWorstP[2,1]  -8.9483358237573224e-02
    x[1,4]    findWorstP[3,1]  -1.3522589522655049e-01
    x[1,5]    allocateEach[5]  1
    x[1,5]    findWorstP[1,2]  7.7881328150611148e-02
    x[1,5]    findWorstP[1,3]  7.7881328150611148e-02
    x[1,5]    findWorstP[2,1]  -2.1289819234888856e-02
    x[1,5]    findWorstP[3,1]  -2.7978901156504934e-02
    x[1,6]    allocateEach[6]  1
    x[1,6]    findWorstP[1,2]  4.4334129474390790e-02
    x[1,6]    findWorstP[1,3]  4.4334129474390790e-02
    x[1,6]    findWorstP[2,1]  -6.2639673115322064e-02
    x[1,6]    findWorstP[3,1]  -1.3537332503358124e-01
    x[1,7]    allocateEach[7]  1
    x[1,7]    findWorstP[1,2]  4.6191791941803645e-02
    x[1,7]    findWorstP[1,3]  4.6191791941803645e-02
    x[1,7]    findWorstP[2,1]  -2.6023828729354825e-02
    x[1,7]    findWorstP[3,1]  -4.8717360678832360e-02
    x[1,8]    allocateEach[8]  1
    x[1,8]    findWorstP[1,2]  1.1832841599150783e-02
    x[1,8]    findWorstP[1,3]  1.1832841599150783e-02
    x[1,8]    findWorstP[2,1]  -1.2237017838488290e-01
    x[1,8]    findWorstP[3,1]  -1.0326638928021492e-01
    x[1,9]    allocateEach[9]  1
    x[1,9]    findWorstP[1,2]  6.3660063379072415e-02
    x[1,9]    findWorstP[1,3]  6.3660063379072415e-02
    x[1,9]    findWorstP[2,1]  -9.0554460944421669e-02
    x[1,9]    findWorstP[3,1]  -3.9822428987976284e-02
    x[1,10]   allocateEach[10]  1
    x[1,10]   findWorstP[1,2]  1.1775082345962315e-01
    x[1,10]   findWorstP[1,3]  1.1775082345962315e-01
    x[1,10]   findWorstP[2,1]  -8.5754333998915661e-02
    x[1,10]   findWorstP[3,1]  -4.1575205582675370e-02
    x[1,11]   allocateEach[11]  1
    x[1,11]   findWorstP[1,2]  5.0469098799544164e-02
    x[1,11]   findWorstP[1,3]  5.0469098799544164e-02
    x[1,11]   findWorstP[2,1]  -5.8553614641048357e-02
    x[1,11]   findWorstP[3,1]  -1.5594797365920784e-02
    x[1,12]   allocateEach[12]  1
    x[1,12]   findWorstP[1,2]  1.5057993412323015e-01
    x[1,12]   findWorstP[1,3]  1.5057993412323015e-01
    x[1,12]   findWorstP[2,1]  -1.2894225301826162e-01
    x[1,12]   findWorstP[3,1]  -9.4060216885627254e-02
    x[1,13]   allocateEach[13]  1
    x[1,13]   findWorstP[1,2]  3.4140401817074881e-02
    x[1,13]   findWorstP[1,3]  3.4140401817074881e-02
    x[1,13]   findWorstP[2,1]  -3.2291763087949434e-02
    x[1,13]   findWorstP[3,1]  -1.3471808144677785e-01
    x[1,14]   allocateEach[14]  1
    x[1,14]   findWorstP[1,2]  5.8508562419019965e-02
    x[1,14]   findWorstP[1,3]  5.8508562419019965e-02
    x[1,14]   findWorstP[2,1]  -1.1017812041310183e-01
    x[1,14]   findWorstP[3,1]  -1.3989450578252467e-02
    x[2,1]    allocateEach[1]  1
    x[2,1]    findWorstP[1,2]  -3.8558204155544106e-03
    x[2,1]    findWorstP[2,1]  3.2476891950861508e-02
    x[2,1]    findWorstP[2,3]  3.2476891950861508e-02
    x[2,1]    findWorstP[3,2]  -1.5463748648560102e-01
    x[2,2]    allocateEach[2]  1
    x[2,2]    findWorstP[1,2]  -3.3266207714762949e-02
    x[2,2]    findWorstP[2,1]  8.0689737249249563e-02
    x[2,2]    findWorstP[2,3]  8.0689737249249563e-02
    x[2,2]    findWorstP[3,2]  -1.6299184221734431e-02
    x[2,3]    allocateEach[3]  1
    x[2,3]    findWorstP[1,2]  -1.4642751213724844e-01
    x[2,3]    findWorstP[2,1]  5.2140221890165685e-02
    x[2,3]    findWorstP[2,3]  5.2140221890165685e-02
    x[2,3]    findWorstP[3,2]  -3.0550732234708257e-02
    x[2,4]    allocateEach[4]  1
    x[2,4]    findWorstP[1,2]  -1.5329618008398507e-01
    x[2,4]    findWorstP[2,1]  8.9483358237573224e-02
    x[2,4]    findWorstP[2,3]  8.9483358237573224e-02
    x[2,4]    findWorstP[3,2]  -1.3522589522655049e-01
    x[2,5]    allocateEach[5]  1
    x[2,5]    findWorstP[1,2]  -7.7881328150611148e-02
    x[2,5]    findWorstP[2,1]  2.1289819234888856e-02
    x[2,5]    findWorstP[2,3]  2.1289819234888856e-02
    x[2,5]    findWorstP[3,2]  -2.7978901156504934e-02
    x[2,6]    allocateEach[6]  1
    x[2,6]    findWorstP[1,2]  -4.4334129474390790e-02
    x[2,6]    findWorstP[2,1]  6.2639673115322064e-02
    x[2,6]    findWorstP[2,3]  6.2639673115322064e-02
    x[2,6]    findWorstP[3,2]  -1.3537332503358124e-01
    x[2,7]    allocateEach[7]  1
    x[2,7]    findWorstP[1,2]  -4.6191791941803645e-02
    x[2,7]    findWorstP[2,1]  2.6023828729354825e-02
    x[2,7]    findWorstP[2,3]  2.6023828729354825e-02
    x[2,7]    findWorstP[3,2]  -4.8717360678832360e-02
    x[2,8]    allocateEach[8]  1
    x[2,8]    findWorstP[1,2]  -1.1832841599150783e-02
    x[2,8]    findWorstP[2,1]  1.2237017838488290e-01
    x[2,8]    findWorstP[2,3]  1.2237017838488290e-01
    x[2,8]    findWorstP[3,2]  -1.0326638928021492e-01
    x[2,9]    allocateEach[9]  1
    x[2,9]    findWorstP[1,2]  -6.3660063379072415e-02
    x[2,9]    findWorstP[2,1]  9.0554460944421669e-02
    x[2,9]    findWorstP[2,3]  9.0554460944421669e-02
    x[2,9]    findWorstP[3,2]  -3.9822428987976284e-02
    x[2,10]   allocateEach[10]  1
    x[2,10]   findWorstP[1,2]  -1.1775082345962315e-01
    x[2,10]   findWorstP[2,1]  8.5754333998915661e-02
    x[2,10]   findWorstP[2,3]  8.5754333998915661e-02
    x[2,10]   findWorstP[3,2]  -4.1575205582675370e-02
    x[2,11]   allocateEach[11]  1
    x[2,11]   findWorstP[1,2]  -5.0469098799544164e-02
    x[2,11]   findWorstP[2,1]  5.8553614641048357e-02
    x[2,11]   findWorstP[2,3]  5.8553614641048357e-02
    x[2,11]   findWorstP[3,2]  -1.5594797365920784e-02
    x[2,12]   allocateEach[12]  1
    x[2,12]   findWorstP[1,2]  -1.5057993412323015e-01
    x[2,12]   findWorstP[2,1]  1.2894225301826162e-01
    x[2,12]   findWorstP[2,3]  1.2894225301826162e-01
    x[2,12]   findWorstP[3,2]  -9.4060216885627254e-02
    x[2,13]   allocateEach[13]  1
    x[2,13]   findWorstP[1,2]  -3.4140401817074881e-02
    x[2,13]   findWorstP[2,1]  3.2291763087949434e-02
    x[2,13]   findWorstP[2,3]  3.2291763087949434e-02
    x[2,13]   findWorstP[3,2]  -1.3471808144677785e-01
    x[2,14]   allocateEach[14]  1
    x[2,14]   findWorstP[1,2]  -5.8508562419019965e-02
    x[2,14]   findWorstP[2,1]  1.1017812041310183e-01
    x[2,14]   findWorstP[2,3]  1.1017812041310183e-01
    x[2,14]   findWorstP[3,2]  -1.3989450578252467e-02
    x[3,1]    allocateEach[1]  1
    x[3,1]    findWorstP[1,3]  -3.8558204155544106e-03
    x[3,1]    findWorstP[2,3]  -3.2476891950861508e-02
    x[3,1]    findWorstP[3,1]  1.5463748648560102e-01
    x[3,1]    findWorstP[3,2]  1.5463748648560102e-01
    x[3,2]    allocateEach[2]  1
    x[3,2]    findWorstP[1,3]  -3.3266207714762949e-02
    x[3,2]    findWorstP[2,3]  -8.0689737249249563e-02
    x[3,2]    findWorstP[3,1]  1.6299184221734431e-02
    x[3,2]    findWorstP[3,2]  1.6299184221734431e-02
    x[3,3]    allocateEach[3]  1
    x[3,3]    findWorstP[1,3]  -1.4642751213724844e-01
    x[3,3]    findWorstP[2,3]  -5.2140221890165685e-02
    x[3,3]    findWorstP[3,1]  3.0550732234708257e-02
    x[3,3]    findWorstP[3,2]  3.0550732234708257e-02
    x[3,4]    allocateEach[4]  1
    x[3,4]    findWorstP[1,3]  -1.5329618008398507e-01
    x[3,4]    findWorstP[2,3]  -8.9483358237573224e-02
    x[3,4]    findWorstP[3,1]  1.3522589522655049e-01
    x[3,4]    findWorstP[3,2]  1.3522589522655049e-01
    x[3,5]    allocateEach[5]  1
    x[3,5]    findWorstP[1,3]  -7.7881328150611148e-02
    x[3,5]    findWorstP[2,3]  -2.1289819234888856e-02
    x[3,5]    findWorstP[3,1]  2.7978901156504934e-02
    x[3,5]    findWorstP[3,2]  2.7978901156504934e-02
    x[3,6]    allocateEach[6]  1
    x[3,6]    findWorstP[1,3]  -4.4334129474390790e-02
    x[3,6]    findWorstP[2,3]  -6.2639673115322064e-02
    x[3,6]    findWorstP[3,1]  1.3537332503358124e-01
    x[3,6]    findWorstP[3,2]  1.3537332503358124e-01
    x[3,7]    allocateEach[7]  1
    x[3,7]    findWorstP[1,3]  -4.6191791941803645e-02
    x[3,7]    findWorstP[2,3]  -2.6023828729354825e-02
    x[3,7]    findWorstP[3,1]  4.8717360678832360e-02
    x[3,7]    findWorstP[3,2]  4.8717360678832360e-02
    x[3,8]    allocateEach[8]  1
    x[3,8]    findWorstP[1,3]  -1.1832841599150783e-02
    x[3,8]    findWorstP[2,3]  -1.2237017838488290e-01
    x[3,8]    findWorstP[3,1]  1.0326638928021492e-01
    x[3,8]    findWorstP[3,2]  1.0326638928021492e-01
    x[3,9]    allocateEach[9]  1
    x[3,9]    findWorstP[1,3]  -6.3660063379072415e-02
    x[3,9]    findWorstP[2,3]  -9.0554460944421669e-02
    x[3,9]    findWorstP[3,1]  3.9822428987976284e-02
    x[3,9]    findWorstP[3,2]  3.9822428987976284e-02
    x[3,10]   allocateEach[10]  1
    x[3,10]   findWorstP[1,3]  -1.1775082345962315e-01
    x[3,10]   findWorstP[2,3]  -8.5754333998915661e-02
    x[3,10]   findWorstP[3,1]  4.1575205582675370e-02
    x[3,10]   findWorstP[3,2]  4.1575205582675370e-02
    x[3,11]   allocateEach[11]  1
    x[3,11]   findWorstP[1,3]  -5.0469098799544164e-02
    x[3,11]   findWorstP[2,3]  -5.8553614641048357e-02
    x[3,11]   findWorstP[3,1]  1.5594797365920784e-02
    x[3,11]   findWorstP[3,2]  1.5594797365920784e-02
    x[3,12]   allocateEach[12]  1
    x[3,12]   findWorstP[1,3]  -1.5057993412323015e-01
    x[3,12]   findWorstP[2,3]  -1.2894225301826162e-01
    x[3,12]   findWorstP[3,1]  9.4060216885627254e-02
    x[3,12]   findWorstP[3,2]  9.4060216885627254e-02
    x[3,13]   allocateEach[13]  1
    x[3,13]   findWorstP[1,3]  -3.4140401817074881e-02
    x[3,13]   findWorstP[2,3]  -3.2291763087949434e-02
    x[3,13]   findWorstP[3,1]  1.3471808144677785e-01
    x[3,13]   findWorstP[3,2]  1.3471808144677785e-01
    x[3,14]   allocateEach[14]  1
    x[3,14]   findWorstP[1,3]  -5.8508562419019965e-02
    x[3,14]   findWorstP[2,3]  -1.1017812041310183e-01
    x[3,14]   findWorstP[3,1]  1.3989450578252467e-02
    x[3,14]   findWorstP[3,2]  1.3989450578252467e-02
    MARKER    'MARKER'                 'INTEND'
RHS
    RHS1      allocateEach[1]  1
    RHS1      allocateEach[2]  1
    RHS1      allocateEach[3]  1
    RHS1      allocateEach[4]  1
    RHS1      allocateEach[5]  1
    RHS1      allocateEach[6]  1
    RHS1      allocateEach[7]  1
    RHS1      allocateEach[8]  1
    RHS1      allocateEach[9]  1
    RHS1      allocateEach[10]  1
    RHS1      allocateEach[11]  1
    RHS1      allocateEach[12]  1
    RHS1      allocateEach[13]  1
    RHS1      allocateEach[14]  1
    RHS1      allocateAllCash  1
BOUNDS
 UP BND1      z         1
 MI BND1      cashProportion[1]
 UP BND1      cashProportion[1]  1
 MI BND1      cashProportion[2]
 UP BND1      cashProportion[2]  1
 MI BND1      cashProportion[3]
 UP BND1      cashProportion[3]  1
 BV BND1      x[1,1]  
 BV BND1      x[1,2]  
 BV BND1      x[1,3]  
 BV BND1      x[1,4]  
 BV BND1      x[1,5]  
 BV BND1      x[1,6]  
 BV BND1      x[1,7]  
 BV BND1      x[1,8]  
 BV BND1      x[1,9]  
 BV BND1      x[1,10] 
 BV BND1      x[1,11] 
 BV BND1      x[1,12] 
 BV BND1      x[1,13] 
 BV BND1      x[1,14] 
 BV BND1      x[2,1]  
 BV BND1      x[2,2]  
 BV BND1      x[2,3]  
 BV BND1      x[2,4]  
 BV BND1      x[2,5]  
 BV BND1      x[2,6]  
 BV BND1      x[2,7]  
 BV BND1      x[2,8]  
 BV BND1      x[2,9]  
 BV BND1      x[2,10] 
 BV BND1      x[2,11] 
 BV BND1      x[2,12] 
 BV BND1      x[2,13] 
 BV BND1      x[2,14] 
 BV BND1      x[3,1]  
 BV BND1      x[3,2]  
 BV BND1      x[3,3]  
 BV BND1      x[3,4]  
 BV BND1      x[3,5]  
 BV BND1      x[3,6]  
 BV BND1      x[3,7]  
 BV BND1      x[3,8]  
 BV BND1      x[3,9]  
 BV BND1      x[3,10] 
 BV BND1      x[3,11] 
 BV BND1      x[3,12] 
 BV BND1      x[3,13] 
 BV BND1      x[3,14] 
ENDATA
